c nIsolatedPIs 2
c maxPI 30
p cnf 121 274
c gate 31 6 -21 0
6 -31 0
-21 -31 0
-6 21 31 0
c gate 32 5 -20 0
5 -32 0
-20 -32 0
-5 20 32 0
c gate 33 4 -19 0
4 -33 0
-19 -33 0
-4 19 33 0
c gate 34 -32 -33 0
-32 -34 0
-33 -34 0
32 33 34 0
c gate 35 3 -18 0
3 -35 0
-18 -35 0
-3 18 35 0
c gate 36 -3 18 0
-3 -36 0
18 -36 0
3 -18 36 0
c gate 37 2 -17 0
2 -37 0
-17 -37 0
-2 17 37 0
c gate 38 -2 17 0
-2 -38 0
17 -38 0
2 -17 38 0
c gate 39 15 -30 0
15 -39 0
-30 -39 0
-15 30 39 0
c gate 40 -15 30 0
-15 -40 0
30 -40 0
15 -30 40 0
c gate 41 14 -29 0
14 -41 0
-29 -41 0
-14 29 41 0
c gate 42 -14 29 0
-14 -42 0
29 -42 0
14 -29 42 0
c gate 43 13 -28 0
13 -43 0
-28 -43 0
-13 28 43 0
c gate 44 -13 28 0
-13 -44 0
28 -44 0
13 -28 44 0
c gate 45 12 -27 0
12 -45 0
-27 -45 0
-12 27 45 0
c gate 46 -12 27 0
-12 -46 0
27 -46 0
12 -27 46 0
c gate 47 11 -26 0
11 -47 0
-26 -47 0
-11 26 47 0
c gate 48 -11 26 0
-11 -48 0
26 -48 0
11 -26 48 0
c gate 49 10 -25 0
10 -49 0
-25 -49 0
-10 25 49 0
c gate 50 -10 25 0
-10 -50 0
25 -50 0
10 -25 50 0
c gate 51 9 -24 0
9 -51 0
-24 -51 0
-9 24 51 0
c gate 52 -9 24 0
-9 -52 0
24 -52 0
9 -24 52 0
c gate 53 7 22 0
7 -53 0
22 -53 0
-7 -22 53 0
c gate 54 -7 -22 0
-7 -54 0
-22 -54 0
7 22 54 0
c gate 55 -53 -54 0
-53 -55 0
-54 -55 0
53 54 55 0
c gate 56 16 -55 0
16 -56 0
-55 -56 0
-16 55 56 0
c gate 57 -1 56 0
-1 -57 0
56 -57 0
1 -56 57 0
c gate 58 -7 22 0
-7 -58 0
22 -58 0
7 -22 58 0
c gate 59 -8 23 0
-8 -59 0
23 -59 0
8 -23 59 0
c gate 60 -58 -59 0
-58 -60 0
-59 -60 0
58 59 60 0
c gate 61 -57 60 0
-57 -61 0
60 -61 0
57 -60 61 0
c gate 62 8 -23 0
8 -62 0
-23 -62 0
-8 23 62 0
c gate 63 -61 -62 0
-61 -63 0
-62 -63 0
61 62 63 0
c gate 64 -52 -63 0
-52 -64 0
-63 -64 0
52 63 64 0
c gate 65 -51 -64 0
-51 -65 0
-64 -65 0
51 64 65 0
c gate 66 -50 -65 0
-50 -66 0
-65 -66 0
50 65 66 0
c gate 67 -49 -66 0
-49 -67 0
-66 -67 0
49 66 67 0
c gate 68 -48 -67 0
-48 -68 0
-67 -68 0
48 67 68 0
c gate 69 -47 -68 0
-47 -69 0
-68 -69 0
47 68 69 0
c gate 70 -46 -69 0
-46 -70 0
-69 -70 0
46 69 70 0
c gate 71 -45 -70 0
-45 -71 0
-70 -71 0
45 70 71 0
c gate 72 -44 -71 0
-44 -72 0
-71 -72 0
44 71 72 0
c gate 73 -43 -72 0
-43 -73 0
-72 -73 0
43 72 73 0
c gate 74 -42 -73 0
-42 -74 0
-73 -74 0
42 73 74 0
c gate 75 -41 -74 0
-41 -75 0
-74 -75 0
41 74 75 0
c gate 76 -40 -75 0
-40 -76 0
-75 -76 0
40 75 76 0
c gate 77 -39 -76 0
-39 -77 0
-76 -77 0
39 76 77 0
c gate 78 -38 -77 0
-38 -78 0
-77 -78 0
38 77 78 0
c gate 79 -37 -78 0
-37 -79 0
-78 -79 0
37 78 79 0
c gate 80 -36 -79 0
-36 -80 0
-79 -80 0
36 79 80 0
c gate 81 -35 -80 0
-35 -81 0
-80 -81 0
35 80 81 0
c gate 82 34 81 0
34 -82 0
81 -82 0
-34 -81 82 0
c gate 83 -5 20 0
-5 -83 0
20 -83 0
5 -20 83 0
c gate 84 -82 -83 0
-82 -84 0
-83 -84 0
82 83 84 0
c gate 85 31 -84 0
31 -85 0
-84 -85 0
-31 84 85 0
c gate 86 -31 -32 0
-31 -86 0
-32 -86 0
31 32 86 0
c gate 87 -6 21 0
-6 -87 0
21 -87 0
6 -21 87 0
c gate 88 -83 -87 0
-83 -88 0
-87 -88 0
83 87 88 0
c gate 89 86 88 0
86 -89 0
88 -89 0
-86 -88 89 0
c gate 90 -34 89 0
-34 -90 0
89 -90 0
34 -89 90 0
c gate 91 81 -90 0
81 -91 0
-90 -91 0
-81 90 91 0
c gate 92 -4 19 0
-4 -92 0
19 -92 0
4 -19 92 0
c gate 93 -91 92 0
-91 -93 0
92 -93 0
91 -92 93 0
c gate 94 1 56 0
1 -94 0
56 -94 0
-1 -56 94 0
c gate 95 -11 -26 0
-11 -95 0
-26 -95 0
11 26 95 0
c gate 96 8 23 0
8 -96 0
23 -96 0
-8 -23 96 0
c gate 97 9 24 0
9 -97 0
24 -97 0
-9 -24 97 0
c gate 98 -96 -97 0
-96 -98 0
-97 -98 0
96 97 98 0
c gate 99 11 26 0
11 -99 0
26 -99 0
-11 -26 99 0
c gate 100 10 25 0
10 -100 0
25 -100 0
-10 -25 100 0
c gate 101 54 -100 0
54 -101 0
-100 -101 0
-54 100 101 0
c gate 102 -99 101 0
-99 -102 0
101 -102 0
99 -101 102 0
c gate 103 98 102 0
98 -103 0
102 -103 0
-98 -102 103 0
c gate 104 -95 -103 0
-95 -104 0
-103 -104 0
95 103 104 0
c gate 105 1 16 0
1 -105 0
16 -105 0
-1 -16 105 0
c gate 106 -53 -105 0
-53 -106 0
-105 -106 0
53 105 106 0
c gate 107 -8 -23 0
-8 -107 0
-23 -107 0
8 23 107 0
c gate 108 -106 -107 0
-106 -108 0
-107 -108 0
106 107 108 0
c gate 109 98 -108 0
98 -109 0
-108 -109 0
-98 108 109 0
c gate 110 -10 -25 0
-10 -110 0
-25 -110 0
10 25 110 0
c gate 111 -9 -24 0
-9 -111 0
-24 -111 0
9 24 111 0
c gate 112 -110 -111 0
-110 -112 0
-111 -112 0
110 111 112 0
c gate 113 -109 112 0
-109 -113 0
112 -113 0
109 -112 113 0
c gate 114 -45 -46 0
-45 -114 0
-46 -114 0
45 46 114 0
c gate 115 99 -114 0
99 -115 0
-114 -115 0
-99 114 115 0
c gate 116 -100 -115 0
-100 -116 0
-115 -116 0
100 115 116 0
c gate 117 -113 116 0
-113 -117 0
116 -117 0
113 -116 117 0
c gate 118 -104 -117 0
-104 -118 0
-117 -118 0
104 117 118 0
c gate 119 -94 -118 0
-94 -119 0
-118 -119 0
94 118 119 0
c gate 120 -93 119 0
-93 -120 0
119 -120 0
93 -119 120 0
c gate 121 -85 120 0
-85 -121 0
120 -121 0
85 -120 121 0
c PO
-121 0
